 H  N  O  C 
 1.0000000000000000
    11.4199999999999999    0.0000000000000000    0.0000000000000000
     0.0000000000000000   10.5800000000000001    0.0000000000000000
     0.0000000000000000    0.0000000000000000   13.1400000000000006
   H   N   O   C
  48  48  48  24
Cartesian
  6.4438599999999999  4.8989200000000004 10.7655999999999992
  8.1008800000000001  1.8152900000000001 12.3907000000000007
  3.1511399999999998  7.7743799999999998  1.3561300000000001
  9.1215799999999998  8.5432900000000007  5.3413199999999996
  2.5686499999999999  2.3992599999999999  8.0856600000000007
  3.3702800000000002  7.8477399999999999  7.7250300000000003
  8.2565700000000000  2.8663400000000001  5.6648199999999997
  2.6502100000000000  2.5764800000000001  1.5229999999999999
  8.9102399999999999  7.5147300000000001 11.7754999999999992
  8.9341500000000007  1.6071000000000000  0.8070720000000000
  2.9299599999999999  7.7951600000000001 12.7707999999999995
  8.2968100000000007  9.0170999999999992  6.9122599999999998
  2.6753100000000001  2.5844299999999998  6.3409700000000004
  2.8499699999999999  7.2189899999999998  6.1989400000000003
  8.5615900000000007  3.1033100000000000  7.3037200000000002
  3.0540799999999999  2.7452600000000000 12.8317999999999994
  8.6704799999999995  7.3057999999999996  0.2962460000000000
  9.2081300000000006  3.4336000000000002 10.6105999999999998
  1.3632200000000001  7.3434100000000004  2.8485000000000000
  7.6412199999999997  6.7430800000000000  3.8652500000000001
  4.3248899999999999  3.0931299999999999  9.6023300000000003
  2.1076400000000000  9.4716299999999993  9.0193300000000001
 10.0680999999999994  2.0263399999999998  3.9695200000000002
  4.2802199999999999  1.4866299999999999  3.0046400000000002
  7.0569800000000003  8.5572900000000001 10.3400999999999996
 10.4921000000000006  4.5561999999999996 11.2765000000000004
 11.1256000000000004  6.9023700000000003  2.1682500000000000
  6.2372600000000000  6.1253900000000003  4.7792300000000001
  5.8967000000000001  3.8165300000000002  8.8314500000000002
  0.6333230000000000 10.1804000000000006  8.2773400000000006
  0.2589070000000000  1.7770900000000001  4.7106599999999998
  5.8657300000000001  0.9155010000000000  2.1516999999999999
  5.3726799999999999  8.8824000000000005 11.1473999999999993
  9.8478600000000007  0.8724550000000000 10.0691000000000006
  1.9979199999999999  9.6888400000000008  2.7314099999999999
  7.2880799999999999  9.6267399999999999  3.2229500000000000
  3.9911300000000001 11.0876999999999999  9.3781099999999995
  1.8312999999999999  6.9249799999999997  9.7646099999999993
  9.2110900000000004  5.1106600000000002  4.1855599999999997
  3.8777200000000001  4.0002399999999998  3.1205900000000000
  7.6504899999999996  6.0803200000000004 10.0723000000000003
 11.4847999999999999  0.4273710000000000 10.8971999999999998
  0.9279330000000000  0.1980180000000000  1.7372300000000001
  5.7923499999999999 10.2309999999999999  3.9626299999999999
  5.0939199999999998 10.2363999999999997  8.2467000000000006
  0.3221880000000000  6.1069699999999996  9.2818600000000000
 10.7356999999999996  5.7240900000000003  5.0808600000000004
  5.2809100000000004  5.1213300000000004  2.4320100000000000
  9.7028599999999994  3.1491099999999999 12.7105999999999995
  1.2278199999999999  7.1302800000000000  0.8277040000000000
  7.4169600000000004  7.3900800000000002  5.8749799999999999
  4.3011299999999997  3.2906000000000000  7.6057600000000001
  1.7254900000000000  8.8427699999999998  7.0997399999999997
 10.0709000000000000  2.1166999999999998  6.0316200000000002
  4.4222799999999998  1.7081000000000000  0.9033010000000000
  7.0433899999999996  8.2550600000000003 12.3645999999999994
  9.8901800000000009  0.8080039999999999 12.1633999999999993
  2.0524700000000000  9.3678899999999992  0.6087930000000000
  7.4394900000000002  9.8090899999999994  5.2668200000000001
  3.7789600000000001  0.9419510000000000  7.3221499999999997
  1.8261700000000001  6.5454600000000003  7.8045799999999996
  9.4563900000000007  4.5243099999999998  6.2042999999999999
  3.9856199999999999  4.0336900000000000  1.1079500000000000
  7.6705699999999997  5.9361800000000002 12.1921999999999997
 11.0165000000000006  2.4800300000000002 10.8021999999999991
  0.2720040000000000  8.8806100000000008  2.0190199999999998
  6.0229400000000002  8.1999999999999993  4.1936700000000000
  5.5693000000000001  1.6439999999999999  8.7025600000000001
  0.4865910000000000  8.1780399999999993  9.0016099999999994
 10.9871999999999996  3.7621600000000002  4.4879600000000002
  5.6148999999999996  2.9401600000000001  2.4312800000000001
  5.8635799999999998  6.8823400000000001 10.8701000000000008
 10.8796999999999997  3.1738800000000000  0.4318490000000000
  0.4102010000000000  6.8246700000000002 12.8945000000000007
  6.4543299999999997  7.3986900000000002  6.9617199999999997
  5.1273200000000001  3.7886000000000002  6.5407900000000003
  0.5906920000000000  8.8362499999999997  6.1092100000000000
 10.9705999999999992  1.8651500000000001  7.0866199999999999
  5.1293699999999998  1.4189200000000000 12.9121000000000006
  6.1934100000000001  8.3970000000000002  0.3663770000000000
  9.9688199999999991 10.0740999999999996 12.6648999999999994
  2.0889700000000002 10.2139000000000006 12.6501999999999999
  7.1108399999999996  0.4078170000000000  5.9224199999999998
  3.8420600000000000  0.1136480000000000  6.2262800000000000
  1.6048300000000000  5.4282399999999997  6.9664900000000003
  9.4579400000000007  5.4844400000000002  7.1782300000000001
  3.9634700000000000  5.0174200000000004  0.1250430000000000
  7.3313400000000000  5.0609799999999998 13.1658000000000008
  0.8953500000000000  2.7713299999999998 10.3562999999999992
 10.5736000000000008  9.3936899999999994  2.7132299999999998
  4.7667599999999997  7.9664900000000003  3.6582800000000000
  6.5513399999999997  1.3450000000000000  9.5927399999999992
 10.5962999999999994  8.2984000000000009  9.3275199999999998
  0.7608960000000000  4.0472700000000001  3.7900399999999999
  6.9326400000000001  3.1079300000000001  2.9883299999999999
  4.8126499999999997  6.6962700000000002 10.0015000000000001
  0.4699670000000000  3.8056299999999998  0.0982770000000000
 10.7148000000000003  6.3675499999999996  0.0449870000000000
  5.3613499999999998  6.9088799999999999  6.7250800000000002
  6.3315900000000003  3.9007000000000001  6.7290299999999998
 11.0120000000000005  9.5351700000000008  6.4014300000000004
 10.4920000000000009  2.0558700000000001  8.2264900000000001
  6.1872600000000002  0.8074290000000000 13.1012000000000004
  5.1064900000000000  8.8918599999999994 13.3117000000000001
 10.8786000000000005  2.5122000000000000  1.4909500000000000
  0.8757640000000000  6.9577799999999996 11.7502999999999993
  6.9143999999999997  7.7271999999999998  8.0921000000000003
  4.6070799999999998  3.9394499999999999  5.4147699999999999
  0.7275890000000000  8.2067099999999993  5.0820900000000000
  0.6537340000000000  1.3931700000000000  6.8982999999999999
  4.6946800000000000  1.7602899999999999 11.7906999999999993
  6.7211100000000004  8.2068600000000007  1.4751600000000000
  9.1123100000000008  9.8408499999999997  0.4009200000000000
  2.6228699999999998  9.8771500000000003 11.5716000000000001
  7.6418400000000002  0.7028330000000000  7.0182900000000004
  3.0709100000000000  0.3250400000000000  5.2280699999999998
  2.3613900000000001  5.3481800000000002  5.9637300000000000
  8.8373500000000007  5.2317099999999996  8.2398600000000002
  3.2478699999999998  4.9065200000000004 12.2782999999999998
  7.7097699999999998  5.2850299999999999  1.1704399999999999
 10.8964999999999996  9.3517799999999998 12.2489000000000008
  1.4792000000000001  0.7388890000000000 12.8251000000000008
  6.3242799999999999  1.2115899999999999  5.3219399999999997
  4.6320100000000002  9.7263400000000004  6.2168799999999997
  0.7684960000000000  4.5608300000000002  7.3228099999999996
 10.1280999999999999  6.4879899999999999  6.9692600000000002
  4.7182199999999996  5.9645000000000001  0.3491310000000000
  6.7038300000000000  4.0052099999999999 12.7253000000000007
  1.6646300000000001  1.8308500000000001 10.0002999999999993
 10.5084000000000000 10.5976999999999997  2.9279299999999999
  4.0893100000000002  8.9048099999999994  3.2353299999999998
  6.6897399999999996  0.1387100000000000  9.9432299999999998
  9.9477700000000002  7.3172300000000003  9.7558299999999996
  0.8859850000000000  5.2137500000000001  3.3963000000000001
  7.2754899999999996  4.1974099999999996  3.4568300000000001
  4.4986199999999998  5.5478100000000001  9.6272500000000001
  1.1595100000000000  3.9752700000000001 10.3650000000000002
  9.7672399999999993  8.5169800000000002  3.1086200000000002
  4.4315100000000003  6.7667200000000003  3.6532800000000001
  7.3591199999999999  2.2017000000000002  9.9788099999999993
 10.0641999999999996  9.4180499999999991  9.1430699999999998
  1.5555500000000000  3.1403900000000000  3.5866400000000001
  7.6080600000000000  2.0625800000000001  3.0747900000000001
  4.0792999999999999  7.7046900000000003  9.7694899999999993
  9.0454500000000007  1.8229800000000000 12.8809000000000005
  2.4444300000000001  7.9654600000000002  0.5298300000000000
  8.1550200000000004  8.6931600000000007  5.8916800000000000
  3.2711100000000002  2.3233700000000002  7.2743599999999997
  2.4964000000000000  7.6314500000000001  7.1304499999999997
  9.0216300000000000  3.1461800000000002  6.3628900000000002
  3.4330400000000001  2.7477600000000000  0.7334300000000000
  8.1420899999999996  7.2686299999999999 12.4929000000000006
 10.0815000000000001  3.5070600000000001 11.2856000000000005
  0.5945319999999999  7.5363400000000000  2.0141900000000001
  6.8044900000000004  7.0466199999999999  4.5721400000000001
  5.0981300000000003  3.0366499999999998  8.8117699999999992
  1.1733700000000000  9.2561599999999995  8.4325799999999997
 10.7390000000000008  2.3328700000000002  4.7292399999999999
  5.0536799999999999  1.6575000000000000  2.2269199999999998
  6.3252800000000002  8.2485700000000008 11.1046999999999993
 10.5710999999999995  1.0880900000000000 10.9004999999999992
  1.3886700000000001  9.7871900000000007  1.7616200000000000
  6.5732400000000002  9.5121000000000002  4.0704500000000001
  4.5965400000000001  0.6325769999999999  8.4753600000000002
  1.0868500000000001  6.8580399999999999  9.0134699999999999
 10.0578000000000003  4.8747600000000002  4.9029499999999997
  4.7201700000000004  4.1486400000000003  2.3704000000000001
  6.9269800000000004  5.8290600000000001 10.8777000000000008
