 H  N  O  C 
 1.0000000000000000
    11.4199999999999999    0.0000000000000000    0.0000000000000000
     0.0000000000000000   10.5800000000000001    0.0000000000000000
     0.0000000000000000    0.0000000000000000   13.1400000000000006
   H   N   O   C
  48  48  48  24
Cartesian
  7.0679800000000004  0.4991500000000000  3.4896199999999999
  2.0753100000000000  6.6441100000000004  5.8628000000000000
  3.0940900000000000  9.4738399999999992  4.4040299999999997
  1.2757200000000000  1.9928600000000001  8.6177899999999994
 10.2158999999999995  2.5640499999999999  1.5214099999999999
 10.3478999999999992  4.3085899999999997 13.1167800000000003
  3.0172800000000000  9.9345599999999994 12.3887000000000000
  2.6678400000000000  0.3975800000000000  8.0405499999999996
 10.8513999999999999  8.1919000000000004 11.4664000000000001
  3.1615600000000001  3.3769300000000002  7.2943300000000004
  4.1593499999999999 10.5404999999999998 11.5838000000000001
  5.8761299999999999  8.7695299999999996  2.5621499999999999
 10.6473999999999993  5.4937899999999997  5.1865100000000002
 10.6946999999999992  0.1760300000000000 13.0249100000000002
  6.0138999999999996  0.2215400000000000  1.1380399999999999
  7.6868999999999996  6.2905800000000003  6.2709200000000003
  3.3969700000000000  1.3409300000000000  4.1823300000000003
  4.2765500000000003  7.4380100000000002 10.8320000000000007
 10.8653999999999993  8.7624600000000008  5.6988099999999999
  8.5257500000000004  6.5899099999999997  0.8529200000000000
  8.9313199999999995  7.2716200000000004  5.2357399999999998
  9.3350799999999996  4.2242899999999999 10.3660999999999994
  2.9857200000000002  4.9311600000000002  7.4594300000000002
  4.9508200000000002  7.7096499999999999  1.2034899999999999
  3.0492499999999998  3.0135900000000002 12.8714999999999993
  2.6516400000000000  0.7470000000000000  5.6747100000000001
  2.8449200000000001  8.0547199999999997 11.0297999999999998
  4.8429099999999998  1.6955499999999999  9.6548400000000001
  4.3903299999999996  7.9317700000000002  2.9606400000000002
 10.7187000000000001  2.7496900000000002 11.5520999999999994
  9.1131300000000000  1.9522100000000000  3.2396900000000000
  3.3797999999999999  2.1430699999999998  9.6185500000000008
  7.4392500000000004  9.3804700000000008  0.2654800000000000
  2.3113600000000001  4.1054500000000003 11.9361999999999995
  0.1770200000000000  2.9666399999999999  7.4107500000000002
  8.0804200000000002  6.7094199999999997  3.4202200000000000
  1.7928700000000000  9.8962699999999995  1.4527200000000000
  2.7492899999999998  8.7263599999999997  0.8000800000000000
  1.0061400000000000  7.8780500000000000 12.2730999999999995
  8.7011699999999994  7.4533800000000001  2.2620200000000001
 11.3659499999999998  7.5443100000000003  3.7584499999999998
  4.0562399999999998  0.1767300000000000  2.3974000000000002
 10.7613000000000003  4.3621400000000001 10.3146000000000004
  9.0611899999999999  1.7037500000000001  0.2029000000000000
  7.8875700000000002  6.1195500000000003 11.5202000000000009
 11.1959000000000000  8.7748600000000003  0.8195200000000000
  2.1714699999999998  8.2348900000000000  8.5123700000000007
  5.0821699999999996 10.4713999999999992  3.1197599999999999
  6.8651700000000000  1.8558500000000000  5.6103500000000004
  6.5677399999999997  3.7003699999999999  0.0189000000000000
  3.5002000000000000  5.1859900000000003 10.4794999999999998
 11.3574000000000002  1.3155900000000000  6.5446799999999996
  2.1468200000000000  9.0542300000000004  1.3552599999999999
  7.8527899999999997  1.4809000000000001  1.3440399999999999
  7.6338900000000001  4.3433000000000002  4.3752899999999997
  6.3249000000000004  9.3757500000000000  4.7030000000000003
  4.6742999999999997  2.6384599999999998  3.1526600000000000
  0.8132900000000000  0.5456100000000000  2.5371100000000002
  5.6421700000000001  5.5872200000000003  2.0244700000000000
  9.5203299999999995  8.9783899999999992 10.9517000000000007
  7.2019000000000002  0.0743200000000000  7.8943700000000003
  7.0420699999999998  7.0404000000000000 10.3217999999999996
  5.0360300000000002  3.8546399999999998  8.3043700000000005
  8.4719800000000003  0.6614200000000000 10.2615999999999996
 11.3854000000000006  9.3991600000000002  8.4744700000000002
  0.2529700000000000  1.0049600000000001  3.3124899999999999
  4.4141100000000000  5.5811000000000002 13.0167999999999999
  0.3888400000000000  9.4303299999999997  5.7293399999999997
  2.6166000000000000  7.1508599999999998  3.1053899999999999
  1.3494699999999999  0.1633000000000000 10.5891000000000002
  0.8887100000000000  6.6422900000000000  9.2329899999999991
 10.9908000000000001  6.1694000000000004  0.4671700000000000
  6.6105299999999998  2.6267200000000002  6.3070100000000000
  5.1407699999999998  8.1587399999999999  2.1404000000000001
  9.3745100000000008  9.9389299999999992  2.7711100000000002
  0.2999500000000000  7.6959799999999996 11.4887999999999995
  7.0034799999999997  0.9427500000000000 12.2306000000000008
  9.0229599999999994  9.8756699999999995  5.9271399999999996
  6.5835900000000001  5.1124700000000001  2.1046299999999998
  5.6287099999999999  4.3799999999999999  7.6253200000000003
  4.4055299999999997  3.3208299999999999  2.3330700000000002
  6.1242900000000002  0.3179700000000000 12.2134999999999998
 10.0441000000000003  2.2682000000000002  0.4696000000000000
  8.8282399999999992  9.1590199999999999 11.6906999999999996
  6.6567200000000000  0.9520999999999999  8.2151599999999991
  6.3556800000000004  7.1241500000000002  9.5315200000000004
  8.1054600000000008 10.3254999999999999  5.7659900000000004
  9.1673100000000005  1.4755100000000001 10.3796999999999997
 10.9550999999999998 10.0876000000000001  9.1680299999999999
  0.6210800000000000  0.1194400000000000 11.3754000000000008
  3.4545900000000000  5.6589200000000002  0.2819400000000000
  4.9651399999999999  9.7051400000000001  6.7719199999999997
 10.4779999999999998  3.3370799999999998 12.5295000000000005
  4.5145200000000001  5.2259599999999997 10.5879999999999992
 10.7865000000000002  9.7736499999999999  0.5351700000000000
  0.5831300000000000  6.4921899999999999  0.3086200000000000
  7.9596000000000000  7.6086200000000002  3.7943400000000000
  1.4551799999999999  3.4213700000000000  5.2841600000000000
  2.2326700000000002  9.5202700000000000  3.9787599999999999
  5.6374000000000004 10.1335999999999995 10.0427999999999997
  9.9715900000000008  5.9002600000000003  3.5499200000000002
  3.9594499999999999  1.7144800000000000 10.2394999999999996
  1.0371500000000000  3.2678900000000000 10.5075000000000003
  9.8848099999999999  7.1720899999999999  5.6739800000000002
  4.2925700000000004  6.0318199999999997  6.3423800000000004
  3.9394300000000002  3.6338900000000001  5.4042300000000001
  9.1769599999999993  6.9711600000000002  1.5532600000000001
 10.8378999999999994  5.3716699999999999  7.1864299999999997
  3.6762400000000000  1.4049100000000001  1.1017900000000000
  6.6146900000000004  8.4191000000000003 11.8910999999999998
  3.5208599999999999  0.0011700000000000 12.3604000000000003
  6.8763600000000000  6.2307399999999999  5.8993799999999998
  2.5516100000000002  4.3330000000000002  2.5009100000000002
  9.4654199999999999  7.0090899999999996  8.9466400000000004
  3.5856100000000000  7.6663800000000002 11.4632000000000005
  0.7202000000000000  8.0642099999999992  3.5846800000000001
  6.8231999999999999 10.3671000000000006  2.9661700000000000
  2.1754400000000000  7.6091800000000003  5.2693099999999999
  3.3001399999999999  9.6909100000000006  9.4245400000000004
  7.0658500000000002  3.2901199999999999  9.6140799999999995
  0.9143100000000000  5.1919000000000004  4.0975799999999998
 10.6153999999999993  2.6554300000000000  8.9815299999999993
  7.6049699999999998  2.4846499999999998  3.6169199999999999
  8.9969300000000008  4.5423799999999996  1.6610400000000001
  2.0977600000000001  6.3340500000000004  7.5086399999999998
 10.1021999999999998  4.8670000000000000 10.6658000000000008
 10.0815000000000001  2.7707199999999998  4.9391400000000001
  2.6991700000000001  4.0476400000000003  7.7769800000000000
  5.3787599999999998  8.7602499999999992 12.0593000000000004
  1.2699000000000000  1.7347800000000000  0.5125700000000000
  8.0726700000000005  5.5755999999999997 12.4512000000000000
  8.3418700000000001  5.0361599999999997  8.2698300000000007
  7.8413700000000004  7.9533899999999997  7.2918700000000003
  3.3540199999999998  0.8696600000000000  7.4863099999999996
  1.0412500000000000  2.4663100000000000  7.5778600000000003
 11.1020000000000003  3.0330300000000001  2.9424800000000002
  2.9387099999999999  3.4456799999999999 11.9951000000000008
  3.6586200000000000  8.0711499999999994  7.0785499999999999
  0.8875400000000000  4.1652899999999997  1.1187600000000000
  3.9479700000000002  5.9281600000000001  3.8693499999999998
  4.3066199999999997 10.1465999999999994  3.0801099999999999
  9.0864700000000003  2.7559700000000000  7.2164099999999998
  7.7043699999999999  9.7557299999999998  0.9916400000000000
  2.6732800000000001  1.3379799999999999  4.8672800000000001
  4.4614799999999999 10.0376999999999992  9.6769800000000004
  7.2588699999999999  4.4638000000000000 12.7919000000000000
  0.1771200000000000  3.0568300000000002  9.6326300000000007
 10.7256999999999998  5.9563699999999997  6.1045400000000001
  8.6216699999999999  7.4406299999999996  8.1388999999999996
  7.0087700000000002  0.2974500000000000  1.4922000000000000
  7.2536899999999997  5.1419899999999998  5.0046400000000002
  6.9848100000000004  8.5468399999999995  4.4095000000000004
  9.5242500000000003  5.1025799999999997  2.6643200000000000
  2.6927400000000001  3.5438600000000000  5.3281099999999997
  9.6022900000000000  2.7368800000000002  6.0843699999999998
  0.1823500000000000  0.2495800000000000  6.3285299999999998
  2.5057999999999998  7.9655199999999997  2.3420399999999999
  8.1825600000000005  2.1760999999999999  2.4799799999999999
  9.8165999999999993  9.9962800000000005  1.7903100000000001
  7.7509199999999998  4.1390399999999996  8.9486500000000007
  4.2381599999999997 10.4620999999999995  7.0136599999999998
  1.7558499999999999  4.8296500000000000  3.2763499999999999
  2.4746299999999999  1.6128199999999999  0.8546800000000000
  1.3367899999999999  8.6959400000000002  4.6992900000000004
  0.2826200000000000  3.5274200000000002  1.9914300000000000
  2.7319900000000001  7.5505100000000001  7.7822699999999996
  0.7319000000000000  7.1286100000000001 10.2025000000000006
  4.2028699999999999  5.8796099999999996  5.1212400000000002
