 O Si  O Si  O Si  O Si  O Si  O Si  O Si  O Si 
 1.0000000000000000
    14.0929000000000002    0.0000000000000000    0.0000000000000000
     0.0000000000000000   14.0929000000000002    0.0000000000000000
     0.0000000000000000    0.0000000000000000   14.0929000000000002
  16   8  16   8  16   8  16   8  16   8  16   8  16   8  16   8
Cartesian
  0.2992161900000000  6.2710287300000003 12.3545534299999993
  6.1194325599999999  0.2030588800000000 13.6338726500000007
  2.0403810700000000  3.9019591299999998  2.3356008099999999
 12.8953437500000003 13.9265309199999994  9.5328390499999998
  4.0411527400000002  3.8127716899999999  7.0464647700000000
  4.5505285999999998  9.2282092599999999 13.9254933800000007
 11.9302991400000007 12.5476228200000008  4.0742444500000001
 13.8076191700000006  2.1478910299999998  8.9365765300000000
  3.7635044400000002 13.3056959900000003  9.4097975700000003
 12.8654809399999994 11.4214350400000004  9.0207081599999999
  8.9095933200000008  9.9773265500000008  7.2453752299999996
  7.9960553200000000 10.0979534100000006 12.2030811400000001
  1.5741257399999999  8.8047194900000001  8.3670655099999998
  4.3876342800000003  8.7705348099999991  6.7519498100000002
  1.9049360600000000  8.0171493599999994 13.4880562099999999
  8.4736507499999991  8.6830978900000009  2.8274989300000000
  4.1534653400000003  5.2912182999999997 12.3893955299999998
  2.6410357400000000  7.7071419800000003  3.3050729500000000
 12.5113108299999993  2.9675374400000001  8.4068239699999996
 10.1616068100000003  2.8477268400000000  1.4116427499999999
  5.7440834100000000  1.7469570600000000 13.3775382100000009
  4.3699943200000000  7.3381357600000001  5.9122565900000001
  4.4855645199999996 10.2822631700000002 12.6755120800000007
  9.2586802000000006 13.5295726700000003 10.3131205200000000
  4.3000488499999996  2.8359465400000001  3.1397986800000002
  8.7868055900000002 12.5158678400000003  7.6672028499999998
  1.7271063200000001  6.3482541599999998  3.3196048700000000
  1.4822226999999999  0.2983243300000000  8.7537880200000000
  0.4352793800000000 10.0457981400000005 12.9120854400000002
 11.0571062999999992  2.6560873100000002  9.1491603300000008
  9.4572290500000005  7.9603927199999998 12.2106285400000001
  9.5085013800000002 11.7649282300000007  5.2721398099999996
  9.6157129099999992 12.0357940299999999  2.8166826399999998
  3.9150678200000000  3.9184508199999999 11.5370096699999998
  2.9126732600000000 10.3288542700000008 12.2082086099999998
  4.5442560900000002  6.4502170599999999 11.3148546000000003
  1.6164286699999999  8.9610565300000005  3.5960148300000001
  5.9863168699999996  2.8399480000000001  8.3276284900000004
  5.6490794199999996 13.5240498700000007  5.4851973599999999
  5.6353015199999996  2.0441271099999998  5.7758628600000002
 12.1650452199999997 12.5438986499999992 10.0130950799999994
  7.5157141999999997 13.4709499699999995  8.0302859299999998
  2.7393890200000000  3.1207544199999999  3.6240043800000001
  3.7053142399999999 10.2283121700000006  6.3438051000000000
  2.7750378699999998  4.6675314800000001  6.5160779599999996
  6.9039343000000004  5.9645978299999998 13.3692319000000008
  0.9149106200000000  9.0459098400000002  6.8998857700000000
  9.3138210800000003  5.1380375599999999  7.7454088900000002
  6.9333641100000003 11.7482553299999992  4.0582276200000003
  5.8927541999999997  6.7267742999999998  6.0907712700000003
 13.0847121800000004  8.4285395399999992  3.5957252199999998
  7.8752996299999998  0.9233884000000000  4.4839649000000001
  5.6184380400000000  5.5527700199999996  8.9274412499999993
  3.1220324499999998  1.7505940600000001 10.2504119700000000
 13.1039524299999997  4.5345241700000001  8.4646407600000000
  8.4368083400000007 12.5155122900000002 11.2756643899999993
  8.0083237000000000 14.1262282900000002  9.4310255400000003
  0.3270480000000000  7.6122779899999999  6.2689971099999999
 13.4716746300000008 12.3667440800000001  6.3295306499999997
  5.3389927999999998  8.1861029500000004  9.4942965800000003
 10.7405139700000003  2.6559622400000000 -0.1688325900000000
  7.8951217199999997  4.9636614400000001 12.5406314000000005
 14.0946983400000008 11.0176513699999994  3.9202950400000001
  3.9124744499999999  7.6774759100000001  4.3661757000000003
 12.1936266399999997  2.7524803000000002 13.0775784300000009
  6.0059309699999996 12.7102901100000008 13.8838688799999996
  0.6340600600000000  0.9263196400000000  3.4150089499999998
  8.0001716700000003  0.9634812699999999  2.8283633199999998
  7.4535023799999998  9.2812895500000003  1.7371795800000001
  7.7424140699999997  3.5424253399999999 11.7534734499999995
  1.2727065399999999 13.3902821799999998  0.8453200500000000
  0.1526497400000000  0.7379276299999999  9.6245315199999997
  4.2297798400000000 12.6929001100000001  3.5252578500000000
  6.3652791999999998  4.4197766200000004  2.3687743800000001
 12.3485573899999999  5.4623902600000003 10.6569089800000008
  6.0837004900000000 12.6728857599999998  8.1429500400000006
 11.7535940799999992  8.1230408900000004  5.8905811799999999
  1.5743216600000001  8.4510832199999992 10.8950645900000005
 10.0742773700000008 11.7548913800000001 13.1769735299999997
  3.4129512700000002  7.9269731300000004  1.8653354600000001
  8.1363513399999992  7.9983074800000002  5.1772120800000003
 12.3749683099999999  2.7964098100000001  6.7805787000000004
 10.3081183299999992  4.3217811800000003  6.7300384099999997
  5.2910638399999996  2.6808599499999999  0.5613002499999999
  7.5049072800000003  7.9528852199999998  7.8772972899999996
 13.5939265200000001  2.1033211600000001  3.4696437499999999
  0.6204363200000000  0.4038105500000000  1.8558915600000001
 12.5089171700000001  7.1948123900000001  8.2224291199999993
  9.6155432600000008 11.3884559599999999  6.8490989100000004
 13.6166994500000005  5.0271172300000000 11.5993605199999994
  5.4069920500000004 12.1779658499999996  4.5613412999999996
  5.6831570999999999  9.6693571400000007 10.0388387199999993
  1.7756865300000000  7.6445481400000004  9.4840516699999995
 12.8126660399999999 11.2610711899999991  7.3811569600000002
  7.4492778299999998  7.1890707100000002  6.4288795500000004
  7.8316470400000000  5.0905436899999996  2.0135538400000002
  7.5543164899999997 12.2162713800000002 13.7509366800000006
  7.5211010600000003  6.1255854999999997  0.7854688500000000
  3.2590148700000001  6.2363548199999999  6.4283326799999996
  8.4685732799999993  5.9296095400000004  6.5790549100000000
  5.3918213300000000 12.5181056700000006  1.2868532100000001
  0.3633688000000000 12.0392306399999995  0.7696467500000000
  5.5086840400000003  9.5412142400000004 11.6504174900000006
  1.8785655000000001  2.5059572100000000 12.6799649300000006
 12.3032478899999997 10.7956690700000006 13.9557715699999996
  7.1277168399999997 10.0763135599999991  9.3933587799999998
  8.3041042500000000  5.9669246800000000  3.3193186200000002
 12.3784215500000006 12.2274835100000008 11.6318294299999998
  2.0959157500000001  9.8824861899999998  6.0819797199999996
  9.2356555500000006  3.2939648300000002 11.1140713000000009
  7.5268038199999996 10.8941226699999998  1.7176184000000001
  8.1385710600000003  4.3789762699999999  8.6117694599999997
  8.8566924700000005  7.4435672100000003  3.7916240100000000
  6.5673340199999997  4.1822592199999997  9.0687065400000009
  1.4643706100000000  6.4320489900000002 13.5019078399999994
  8.5352020500000005 11.6081629999999993 12.6182263300000006
 11.4945463799999992 11.1819952199999992 12.5849924800000004
 13.8930232900000004 10.5991644100000002  0.2338231500000000
  8.2580336100000000  9.2414248800000003  8.5482041399999993
 10.4432526100000000  2.2845316400000000 10.6583635099999992
 13.6039865700000000  9.8754675499999998  7.0460253899999996
  6.8903939699999999  7.4477995999999997 12.6554385499999995
  0.6317481000000000  6.4774267800000001  9.3737664299999999
 11.4914315800000004  7.7075513200000003 10.5055737899999997
  9.4144098100000004  1.5606284200000000  2.1850265900000001
  0.3121996800000000 13.7159990199999999  4.3759340000000000
  5.8831045399999997  8.9061105499999993  2.0527241799999998
 10.2815877600000007  5.8142838200000000  8.9104581399999994
  3.6090809899999998 10.5670221400000006  1.9007704100000000
 11.1087926699999997  9.9786331399999995 11.5552667099999997
  9.0364094200000000  4.0558924300000001  1.5496139400000000
  0.6248705600000000  4.2269460900000002 10.5519106899999997
 10.5144158599999997  7.3570551100000001  3.7535630800000002
 12.6875953999999993  5.5623145899999997  6.0846955600000001
 14.0934494299999997  9.5640322700000002  1.4998036400000001
  9.4092625099999996  8.9254233200000002  9.6464660400000000
  4.7075218500000000  6.7048287400000000  9.7077461199999995
 13.4800482800000001 12.3818568899999999  4.6611403700000000
  3.0744678900000002  0.6531001500000000  9.0301376100000006
  3.2604489200000000  2.4360136799999998 11.7414440399999993
  8.0819353799999991  8.5797321899999996 12.8630830199999995
  0.5701267000000000  4.8714312700000004  8.9790108300000000
 11.7876641400000004  4.1704717100000002  6.0387029800000001
  1.7215939600000001  9.1914180400000003 12.3499240900000000
 11.2162275400000002 11.2623452099999994  7.0590322800000003
 12.9766642599999997  4.2019273000000004 12.8918504800000004
  3.8764259800000000  1.2265508199999999  7.6982860899999999
 10.5497862599999994 12.6786452300000008  9.6962504900000006
 11.7119812900000007  3.7647274500000001  4.4710888799999999
  4.6798021299999997 10.9072059200000009  9.7131791399999994
  6.7207555200000000  1.8761809400000000  2.5009950900000000
  1.5650234999999999  4.5361647100000004  7.6787149399999999
  6.5628529899999997  3.7578665500000001 10.6435662600000001
  7.6797533600000003 13.5767470499999998  2.1917854999999999
  0.9168404100000001  5.9453446100000003  0.8649987800000000
 11.6384013599999996  3.1427203100000001  2.0329612300000002
  4.3773738499999997  1.5502891999999999 12.5164783199999992
  2.4953660599999998  4.0609423400000004  4.9852212700000003
 13.6489050499999998  4.7341475500000003  2.8214147100000000
  4.7093873899999998 10.7983370799999996  5.1587418500000002
  0.1387373100000000  9.5418397600000002  3.1536571499999999
 11.6009065800000002  8.4844342299999997  4.2965721900000000
 12.7037327500000004  3.4428613800000001  3.2187399299999999
  7.9486623200000004 12.0601649599999998  2.7650401499999999
  5.6052798599999996  2.9815639100000002  2.1451595900000000
  6.6558697899999997  0.7450462400000000  5.5907160100000004
  4.6056634399999998 12.1331727699999998  8.6372746300000003
 10.5901240699999999 11.5786945899999996  4.0522868499999998
  2.7548788800000001  5.4922655699999998 13.1786160900000002
  3.7410287900000001 11.4824336099999993  7.4027012799999996
  8.1586126799999992  8.7719497099999995  0.3690602500000000
  3.1832578400000000  6.8596526100000004  9.1128580899999996
  2.7537209300000001 13.0170760300000001  1.3908929500000000
  0.4766986300000000  0.7876005800000000 11.2079595699999999
  1.4171252900000000 -0.0136295000000000 13.4629071499999995
 11.1097064000000003 10.0264301699999994  4.0661666199999997
  7.1302177400000000  2.3442459900000001 12.7023122300000004
  4.9883167799999999 11.8213898400000001 12.9397499699999994
 13.4195852200000001  1.7130373299999999 13.4991722500000009
  7.4967337499999998  0.6322204000000000  6.9899319499999999
  9.8728939899999997  0.7848720100000000 10.9752699000000007
  5.3915994100000004  5.3151541800000004 13.4765409999999992
  2.0529325400000000  1.6356865000000000  3.9090425400000002
 11.7986724600000006  2.3486141599999999 11.5486611000000003
  4.3805805600000003  9.1761304999999993  1.4449880500000001
 11.7074955400000000  6.4602389999999996  9.4822118000000000
 10.3128944100000002  8.6708421900000001 10.9909860500000001
  3.9766662500000001 12.1678501899999993  2.0054997800000001
  1.0483232000000000  5.2270397300000004  2.3254567100000001
  4.8792948899999997  2.4405783599999999  7.1963885400000001
 12.8456323700000006  7.1143496600000002  6.6173300599999996
  0.7384699900000000  1.2915395999999999 12.7356220600000007
